NAME : berlin52.9135680.tour
COMMENT : Cost = 3069587_9135680
COMMENT : Found by LKH [Keld Helsgaun] Thu Jan 19 22:05:37 2017
TYPE : TOUR
DIMENSION : 54
TOUR_SECTION
1
22
18
17
3
45
19
41
8
9
10
33
43
4
6
15
5
24
38
40
39
36
35
49
32
54
31
21
42
7
2
30
29
47
26
16
50
20
23
53
44
46
28
27
13
14
52
11
51
12
25
48
37
34
-1
EOF
